(set-logic QF_LRA)
(declare-fun X0 () Real )
(declare-fun Y0 () Real )
(declare-fun X1 () Real )
(declare-fun Y1 () Real )
(declare-fun X2 () Real )
(declare-fun Y2 () Real )
(declare-fun X3 () Real )
(declare-fun Y3 () Real )
(declare-fun X4 () Real )
(declare-fun Y4 () Real )
(declare-fun X5 () Real )
(declare-fun Y5 () Real )
(declare-fun X6 () Real )
(declare-fun Y6 () Real )
(declare-fun X7 () Real )
(declare-fun Y7 () Real )
(declare-fun X8 () Real )
(declare-fun Y8 () Real )
(declare-fun X9 () Real )
(declare-fun Y9 () Real )
(declare-fun X10 () Real )
(declare-fun Y10 () Real )
(declare-fun X11 () Real )
(declare-fun Y11 () Real )
(declare-fun X12 () Real )
(declare-fun Y12 () Real )
(declare-fun X13 () Real )
(declare-fun Y13 () Real )
(declare-fun X14 () Real )
(declare-fun Y14 () Real )
(declare-fun X15 () Real )
(declare-fun Y15 () Real )
(declare-fun X16 () Real )
(declare-fun Y16 () Real )
(declare-fun X17 () Real )
(declare-fun Y17 () Real )
(declare-fun Z () Real )
(assert ( and  
( or ( <= ( + X0 28 ) X1 )  ( <= ( + X1 72 ) X0 )  ( <= ( + Y0 44 ) Y1 )  ( <= ( + Y1 1 ) Y0 )  )
( or ( <= ( + X0 28 ) X2 )  ( <= ( + X2 80 ) X0 )  ( <= ( + Y0 44 ) Y2 )  ( <= ( + Y2 36 ) Y0 )  )
( or ( <= ( + X0 28 ) X3 )  ( <= ( + X3 44 ) X0 )  ( <= ( + Y0 44 ) Y3 )  ( <= ( + Y3 95 ) Y0 )  )
( or ( <= ( + X0 28 ) X4 )  ( <= ( + X4 78 ) X0 )  ( <= ( + Y0 44 ) Y4 )  ( <= ( + Y4 69 ) Y0 )  )
( or ( <= ( + X0 28 ) X5 )  ( <= ( + X5 64 ) X0 )  ( <= ( + Y0 44 ) Y5 )  ( <= ( + Y5 26 ) Y0 )  )
( or ( <= ( + X0 28 ) X6 )  ( <= ( + X6 21 ) X0 )  ( <= ( + Y0 44 ) Y6 )  ( <= ( + Y6 56 ) Y0 )  )
( or ( <= ( + X0 28 ) X7 )  ( <= ( + X7 67 ) X0 )  ( <= ( + Y0 44 ) Y7 )  ( <= ( + Y7 36 ) Y0 )  )
( or ( <= ( + X0 28 ) X8 )  ( <= ( + X8 20 ) X0 )  ( <= ( + Y0 44 ) Y8 )  ( <= ( + Y8 60 ) Y0 )  )
( or ( <= ( + X0 28 ) X9 )  ( <= ( + X9 63 ) X0 )  ( <= ( + Y0 44 ) Y9 )  ( <= ( + Y9 64 ) Y0 )  )
( or ( <= ( + X0 28 ) X10 )  ( <= ( + X10 70 ) X0 )  ( <= ( + Y0 44 ) Y10 )  ( <= ( + Y10 54 ) Y0 )  )
( or ( <= ( + X0 28 ) X11 )  ( <= ( + X11 22 ) X0 )  ( <= ( + Y0 44 ) Y11 )  ( <= ( + Y11 88 ) Y0 )  )
( or ( <= ( + X0 28 ) X12 )  ( <= ( + X12 8 ) X0 )  ( <= ( + Y0 44 ) Y12 )  ( <= ( + Y12 64 ) Y0 )  )
( or ( <= ( + X0 28 ) X13 )  ( <= ( + X13 20 ) X0 )  ( <= ( + Y0 44 ) Y13 )  ( <= ( + Y13 82 ) Y0 )  )
( or ( <= ( + X0 28 ) X14 )  ( <= ( + X14 68 ) X0 )  ( <= ( + Y0 44 ) Y14 )  ( <= ( + Y14 59 ) Y0 )  )
( or ( <= ( + X0 28 ) X15 )  ( <= ( + X15 54 ) X0 )  ( <= ( + Y0 44 ) Y15 )  ( <= ( + Y15 95 ) Y0 )  )
( or ( <= ( + X0 28 ) X16 )  ( <= ( + X16 19 ) X0 )  ( <= ( + Y0 44 ) Y16 )  ( <= ( + Y16 77 ) Y0 )  )
( or ( <= ( + X0 28 ) X17 )  ( <= ( + X17 48 ) X0 )  ( <= ( + Y0 44 ) Y17 )  ( <= ( + Y17 36 ) Y0 )  )
( or ( <= ( + X1 72 ) X2 )  ( <= ( + X2 80 ) X1 )  ( <= ( + Y1 1 ) Y2 )  ( <= ( + Y2 36 ) Y1 )  )
( or ( <= ( + X1 72 ) X3 )  ( <= ( + X3 44 ) X1 )  ( <= ( + Y1 1 ) Y3 )  ( <= ( + Y3 95 ) Y1 )  )
( or ( <= ( + X1 72 ) X4 )  ( <= ( + X4 78 ) X1 )  ( <= ( + Y1 1 ) Y4 )  ( <= ( + Y4 69 ) Y1 )  )
( or ( <= ( + X1 72 ) X5 )  ( <= ( + X5 64 ) X1 )  ( <= ( + Y1 1 ) Y5 )  ( <= ( + Y5 26 ) Y1 )  )
( or ( <= ( + X1 72 ) X6 )  ( <= ( + X6 21 ) X1 )  ( <= ( + Y1 1 ) Y6 )  ( <= ( + Y6 56 ) Y1 )  )
( or ( <= ( + X1 72 ) X7 )  ( <= ( + X7 67 ) X1 )  ( <= ( + Y1 1 ) Y7 )  ( <= ( + Y7 36 ) Y1 )  )
( or ( <= ( + X1 72 ) X8 )  ( <= ( + X8 20 ) X1 )  ( <= ( + Y1 1 ) Y8 )  ( <= ( + Y8 60 ) Y1 )  )
( or ( <= ( + X1 72 ) X9 )  ( <= ( + X9 63 ) X1 )  ( <= ( + Y1 1 ) Y9 )  ( <= ( + Y9 64 ) Y1 )  )
( or ( <= ( + X1 72 ) X10 )  ( <= ( + X10 70 ) X1 )  ( <= ( + Y1 1 ) Y10 )  ( <= ( + Y10 54 ) Y1 )  )
( or ( <= ( + X1 72 ) X11 )  ( <= ( + X11 22 ) X1 )  ( <= ( + Y1 1 ) Y11 )  ( <= ( + Y11 88 ) Y1 )  )
( or ( <= ( + X1 72 ) X12 )  ( <= ( + X12 8 ) X1 )  ( <= ( + Y1 1 ) Y12 )  ( <= ( + Y12 64 ) Y1 )  )
( or ( <= ( + X1 72 ) X13 )  ( <= ( + X13 20 ) X1 )  ( <= ( + Y1 1 ) Y13 )  ( <= ( + Y13 82 ) Y1 )  )
( or ( <= ( + X1 72 ) X14 )  ( <= ( + X14 68 ) X1 )  ( <= ( + Y1 1 ) Y14 )  ( <= ( + Y14 59 ) Y1 )  )
( or ( <= ( + X1 72 ) X15 )  ( <= ( + X15 54 ) X1 )  ( <= ( + Y1 1 ) Y15 )  ( <= ( + Y15 95 ) Y1 )  )
( or ( <= ( + X1 72 ) X16 )  ( <= ( + X16 19 ) X1 )  ( <= ( + Y1 1 ) Y16 )  ( <= ( + Y16 77 ) Y1 )  )
( or ( <= ( + X1 72 ) X17 )  ( <= ( + X17 48 ) X1 )  ( <= ( + Y1 1 ) Y17 )  ( <= ( + Y17 36 ) Y1 )  )
( or ( <= ( + X2 80 ) X3 )  ( <= ( + X3 44 ) X2 )  ( <= ( + Y2 36 ) Y3 )  ( <= ( + Y3 95 ) Y2 )  )
( or ( <= ( + X2 80 ) X4 )  ( <= ( + X4 78 ) X2 )  ( <= ( + Y2 36 ) Y4 )  ( <= ( + Y4 69 ) Y2 )  )
( or ( <= ( + X2 80 ) X5 )  ( <= ( + X5 64 ) X2 )  ( <= ( + Y2 36 ) Y5 )  ( <= ( + Y5 26 ) Y2 )  )
( or ( <= ( + X2 80 ) X6 )  ( <= ( + X6 21 ) X2 )  ( <= ( + Y2 36 ) Y6 )  ( <= ( + Y6 56 ) Y2 )  )
( or ( <= ( + X2 80 ) X7 )  ( <= ( + X7 67 ) X2 )  ( <= ( + Y2 36 ) Y7 )  ( <= ( + Y7 36 ) Y2 )  )
( or ( <= ( + X2 80 ) X8 )  ( <= ( + X8 20 ) X2 )  ( <= ( + Y2 36 ) Y8 )  ( <= ( + Y8 60 ) Y2 )  )
( or ( <= ( + X2 80 ) X9 )  ( <= ( + X9 63 ) X2 )  ( <= ( + Y2 36 ) Y9 )  ( <= ( + Y9 64 ) Y2 )  )
( or ( <= ( + X2 80 ) X10 )  ( <= ( + X10 70 ) X2 )  ( <= ( + Y2 36 ) Y10 )  ( <= ( + Y10 54 ) Y2 )  )
( or ( <= ( + X2 80 ) X11 )  ( <= ( + X11 22 ) X2 )  ( <= ( + Y2 36 ) Y11 )  ( <= ( + Y11 88 ) Y2 )  )
( or ( <= ( + X2 80 ) X12 )  ( <= ( + X12 8 ) X2 )  ( <= ( + Y2 36 ) Y12 )  ( <= ( + Y12 64 ) Y2 )  )
( or ( <= ( + X2 80 ) X13 )  ( <= ( + X13 20 ) X2 )  ( <= ( + Y2 36 ) Y13 )  ( <= ( + Y13 82 ) Y2 )  )
( or ( <= ( + X2 80 ) X14 )  ( <= ( + X14 68 ) X2 )  ( <= ( + Y2 36 ) Y14 )  ( <= ( + Y14 59 ) Y2 )  )
( or ( <= ( + X2 80 ) X15 )  ( <= ( + X15 54 ) X2 )  ( <= ( + Y2 36 ) Y15 )  ( <= ( + Y15 95 ) Y2 )  )
( or ( <= ( + X2 80 ) X16 )  ( <= ( + X16 19 ) X2 )  ( <= ( + Y2 36 ) Y16 )  ( <= ( + Y16 77 ) Y2 )  )
( or ( <= ( + X2 80 ) X17 )  ( <= ( + X17 48 ) X2 )  ( <= ( + Y2 36 ) Y17 )  ( <= ( + Y17 36 ) Y2 )  )
( or ( <= ( + X3 44 ) X4 )  ( <= ( + X4 78 ) X3 )  ( <= ( + Y3 95 ) Y4 )  ( <= ( + Y4 69 ) Y3 )  )
( or ( <= ( + X3 44 ) X5 )  ( <= ( + X5 64 ) X3 )  ( <= ( + Y3 95 ) Y5 )  ( <= ( + Y5 26 ) Y3 )  )
( or ( <= ( + X3 44 ) X6 )  ( <= ( + X6 21 ) X3 )  ( <= ( + Y3 95 ) Y6 )  ( <= ( + Y6 56 ) Y3 )  )
( or ( <= ( + X3 44 ) X7 )  ( <= ( + X7 67 ) X3 )  ( <= ( + Y3 95 ) Y7 )  ( <= ( + Y7 36 ) Y3 )  )
( or ( <= ( + X3 44 ) X8 )  ( <= ( + X8 20 ) X3 )  ( <= ( + Y3 95 ) Y8 )  ( <= ( + Y8 60 ) Y3 )  )
( or ( <= ( + X3 44 ) X9 )  ( <= ( + X9 63 ) X3 )  ( <= ( + Y3 95 ) Y9 )  ( <= ( + Y9 64 ) Y3 )  )
( or ( <= ( + X3 44 ) X10 )  ( <= ( + X10 70 ) X3 )  ( <= ( + Y3 95 ) Y10 )  ( <= ( + Y10 54 ) Y3 )  )
( or ( <= ( + X3 44 ) X11 )  ( <= ( + X11 22 ) X3 )  ( <= ( + Y3 95 ) Y11 )  ( <= ( + Y11 88 ) Y3 )  )
( or ( <= ( + X3 44 ) X12 )  ( <= ( + X12 8 ) X3 )  ( <= ( + Y3 95 ) Y12 )  ( <= ( + Y12 64 ) Y3 )  )
( or ( <= ( + X3 44 ) X13 )  ( <= ( + X13 20 ) X3 )  ( <= ( + Y3 95 ) Y13 )  ( <= ( + Y13 82 ) Y3 )  )
( or ( <= ( + X3 44 ) X14 )  ( <= ( + X14 68 ) X3 )  ( <= ( + Y3 95 ) Y14 )  ( <= ( + Y14 59 ) Y3 )  )
( or ( <= ( + X3 44 ) X15 )  ( <= ( + X15 54 ) X3 )  ( <= ( + Y3 95 ) Y15 )  ( <= ( + Y15 95 ) Y3 )  )
( or ( <= ( + X3 44 ) X16 )  ( <= ( + X16 19 ) X3 )  ( <= ( + Y3 95 ) Y16 )  ( <= ( + Y16 77 ) Y3 )  )
( or ( <= ( + X3 44 ) X17 )  ( <= ( + X17 48 ) X3 )  ( <= ( + Y3 95 ) Y17 )  ( <= ( + Y17 36 ) Y3 )  )
( or ( <= ( + X4 78 ) X5 )  ( <= ( + X5 64 ) X4 )  ( <= ( + Y4 69 ) Y5 )  ( <= ( + Y5 26 ) Y4 )  )
( or ( <= ( + X4 78 ) X6 )  ( <= ( + X6 21 ) X4 )  ( <= ( + Y4 69 ) Y6 )  ( <= ( + Y6 56 ) Y4 )  )
( or ( <= ( + X4 78 ) X7 )  ( <= ( + X7 67 ) X4 )  ( <= ( + Y4 69 ) Y7 )  ( <= ( + Y7 36 ) Y4 )  )
( or ( <= ( + X4 78 ) X8 )  ( <= ( + X8 20 ) X4 )  ( <= ( + Y4 69 ) Y8 )  ( <= ( + Y8 60 ) Y4 )  )
( or ( <= ( + X4 78 ) X9 )  ( <= ( + X9 63 ) X4 )  ( <= ( + Y4 69 ) Y9 )  ( <= ( + Y9 64 ) Y4 )  )
( or ( <= ( + X4 78 ) X10 )  ( <= ( + X10 70 ) X4 )  ( <= ( + Y4 69 ) Y10 )  ( <= ( + Y10 54 ) Y4 )  )
( or ( <= ( + X4 78 ) X11 )  ( <= ( + X11 22 ) X4 )  ( <= ( + Y4 69 ) Y11 )  ( <= ( + Y11 88 ) Y4 )  )
( or ( <= ( + X4 78 ) X12 )  ( <= ( + X12 8 ) X4 )  ( <= ( + Y4 69 ) Y12 )  ( <= ( + Y12 64 ) Y4 )  )
( or ( <= ( + X4 78 ) X13 )  ( <= ( + X13 20 ) X4 )  ( <= ( + Y4 69 ) Y13 )  ( <= ( + Y13 82 ) Y4 )  )
( or ( <= ( + X4 78 ) X14 )  ( <= ( + X14 68 ) X4 )  ( <= ( + Y4 69 ) Y14 )  ( <= ( + Y14 59 ) Y4 )  )
( or ( <= ( + X4 78 ) X15 )  ( <= ( + X15 54 ) X4 )  ( <= ( + Y4 69 ) Y15 )  ( <= ( + Y15 95 ) Y4 )  )
( or ( <= ( + X4 78 ) X16 )  ( <= ( + X16 19 ) X4 )  ( <= ( + Y4 69 ) Y16 )  ( <= ( + Y16 77 ) Y4 )  )
( or ( <= ( + X4 78 ) X17 )  ( <= ( + X17 48 ) X4 )  ( <= ( + Y4 69 ) Y17 )  ( <= ( + Y17 36 ) Y4 )  )
( or ( <= ( + X5 64 ) X6 )  ( <= ( + X6 21 ) X5 )  ( <= ( + Y5 26 ) Y6 )  ( <= ( + Y6 56 ) Y5 )  )
( or ( <= ( + X5 64 ) X7 )  ( <= ( + X7 67 ) X5 )  ( <= ( + Y5 26 ) Y7 )  ( <= ( + Y7 36 ) Y5 )  )
( or ( <= ( + X5 64 ) X8 )  ( <= ( + X8 20 ) X5 )  ( <= ( + Y5 26 ) Y8 )  ( <= ( + Y8 60 ) Y5 )  )
( or ( <= ( + X5 64 ) X9 )  ( <= ( + X9 63 ) X5 )  ( <= ( + Y5 26 ) Y9 )  ( <= ( + Y9 64 ) Y5 )  )
( or ( <= ( + X5 64 ) X10 )  ( <= ( + X10 70 ) X5 )  ( <= ( + Y5 26 ) Y10 )  ( <= ( + Y10 54 ) Y5 )  )
( or ( <= ( + X5 64 ) X11 )  ( <= ( + X11 22 ) X5 )  ( <= ( + Y5 26 ) Y11 )  ( <= ( + Y11 88 ) Y5 )  )
( or ( <= ( + X5 64 ) X12 )  ( <= ( + X12 8 ) X5 )  ( <= ( + Y5 26 ) Y12 )  ( <= ( + Y12 64 ) Y5 )  )
( or ( <= ( + X5 64 ) X13 )  ( <= ( + X13 20 ) X5 )  ( <= ( + Y5 26 ) Y13 )  ( <= ( + Y13 82 ) Y5 )  )
( or ( <= ( + X5 64 ) X14 )  ( <= ( + X14 68 ) X5 )  ( <= ( + Y5 26 ) Y14 )  ( <= ( + Y14 59 ) Y5 )  )
( or ( <= ( + X5 64 ) X15 )  ( <= ( + X15 54 ) X5 )  ( <= ( + Y5 26 ) Y15 )  ( <= ( + Y15 95 ) Y5 )  )
( or ( <= ( + X5 64 ) X16 )  ( <= ( + X16 19 ) X5 )  ( <= ( + Y5 26 ) Y16 )  ( <= ( + Y16 77 ) Y5 )  )
( or ( <= ( + X5 64 ) X17 )  ( <= ( + X17 48 ) X5 )  ( <= ( + Y5 26 ) Y17 )  ( <= ( + Y17 36 ) Y5 )  )
( or ( <= ( + X6 21 ) X7 )  ( <= ( + X7 67 ) X6 )  ( <= ( + Y6 56 ) Y7 )  ( <= ( + Y7 36 ) Y6 )  )
( or ( <= ( + X6 21 ) X8 )  ( <= ( + X8 20 ) X6 )  ( <= ( + Y6 56 ) Y8 )  ( <= ( + Y8 60 ) Y6 )  )
( or ( <= ( + X6 21 ) X9 )  ( <= ( + X9 63 ) X6 )  ( <= ( + Y6 56 ) Y9 )  ( <= ( + Y9 64 ) Y6 )  )
( or ( <= ( + X6 21 ) X10 )  ( <= ( + X10 70 ) X6 )  ( <= ( + Y6 56 ) Y10 )  ( <= ( + Y10 54 ) Y6 )  )
( or ( <= ( + X6 21 ) X11 )  ( <= ( + X11 22 ) X6 )  ( <= ( + Y6 56 ) Y11 )  ( <= ( + Y11 88 ) Y6 )  )
( or ( <= ( + X6 21 ) X12 )  ( <= ( + X12 8 ) X6 )  ( <= ( + Y6 56 ) Y12 )  ( <= ( + Y12 64 ) Y6 )  )
( or ( <= ( + X6 21 ) X13 )  ( <= ( + X13 20 ) X6 )  ( <= ( + Y6 56 ) Y13 )  ( <= ( + Y13 82 ) Y6 )  )
( or ( <= ( + X6 21 ) X14 )  ( <= ( + X14 68 ) X6 )  ( <= ( + Y6 56 ) Y14 )  ( <= ( + Y14 59 ) Y6 )  )
( or ( <= ( + X6 21 ) X15 )  ( <= ( + X15 54 ) X6 )  ( <= ( + Y6 56 ) Y15 )  ( <= ( + Y15 95 ) Y6 )  )
( or ( <= ( + X6 21 ) X16 )  ( <= ( + X16 19 ) X6 )  ( <= ( + Y6 56 ) Y16 )  ( <= ( + Y16 77 ) Y6 )  )
( or ( <= ( + X6 21 ) X17 )  ( <= ( + X17 48 ) X6 )  ( <= ( + Y6 56 ) Y17 )  ( <= ( + Y17 36 ) Y6 )  )
( or ( <= ( + X7 67 ) X8 )  ( <= ( + X8 20 ) X7 )  ( <= ( + Y7 36 ) Y8 )  ( <= ( + Y8 60 ) Y7 )  )
( or ( <= ( + X7 67 ) X9 )  ( <= ( + X9 63 ) X7 )  ( <= ( + Y7 36 ) Y9 )  ( <= ( + Y9 64 ) Y7 )  )
( or ( <= ( + X7 67 ) X10 )  ( <= ( + X10 70 ) X7 )  ( <= ( + Y7 36 ) Y10 )  ( <= ( + Y10 54 ) Y7 )  )
( or ( <= ( + X7 67 ) X11 )  ( <= ( + X11 22 ) X7 )  ( <= ( + Y7 36 ) Y11 )  ( <= ( + Y11 88 ) Y7 )  )
( or ( <= ( + X7 67 ) X12 )  ( <= ( + X12 8 ) X7 )  ( <= ( + Y7 36 ) Y12 )  ( <= ( + Y12 64 ) Y7 )  )
( or ( <= ( + X7 67 ) X13 )  ( <= ( + X13 20 ) X7 )  ( <= ( + Y7 36 ) Y13 )  ( <= ( + Y13 82 ) Y7 )  )
( or ( <= ( + X7 67 ) X14 )  ( <= ( + X14 68 ) X7 )  ( <= ( + Y7 36 ) Y14 )  ( <= ( + Y14 59 ) Y7 )  )
( or ( <= ( + X7 67 ) X15 )  ( <= ( + X15 54 ) X7 )  ( <= ( + Y7 36 ) Y15 )  ( <= ( + Y15 95 ) Y7 )  )
( or ( <= ( + X7 67 ) X16 )  ( <= ( + X16 19 ) X7 )  ( <= ( + Y7 36 ) Y16 )  ( <= ( + Y16 77 ) Y7 )  )
( or ( <= ( + X7 67 ) X17 )  ( <= ( + X17 48 ) X7 )  ( <= ( + Y7 36 ) Y17 )  ( <= ( + Y17 36 ) Y7 )  )
( or ( <= ( + X8 20 ) X9 )  ( <= ( + X9 63 ) X8 )  ( <= ( + Y8 60 ) Y9 )  ( <= ( + Y9 64 ) Y8 )  )
( or ( <= ( + X8 20 ) X10 )  ( <= ( + X10 70 ) X8 )  ( <= ( + Y8 60 ) Y10 )  ( <= ( + Y10 54 ) Y8 )  )
( or ( <= ( + X8 20 ) X11 )  ( <= ( + X11 22 ) X8 )  ( <= ( + Y8 60 ) Y11 )  ( <= ( + Y11 88 ) Y8 )  )
( or ( <= ( + X8 20 ) X12 )  ( <= ( + X12 8 ) X8 )  ( <= ( + Y8 60 ) Y12 )  ( <= ( + Y12 64 ) Y8 )  )
( or ( <= ( + X8 20 ) X13 )  ( <= ( + X13 20 ) X8 )  ( <= ( + Y8 60 ) Y13 )  ( <= ( + Y13 82 ) Y8 )  )
( or ( <= ( + X8 20 ) X14 )  ( <= ( + X14 68 ) X8 )  ( <= ( + Y8 60 ) Y14 )  ( <= ( + Y14 59 ) Y8 )  )
( or ( <= ( + X8 20 ) X15 )  ( <= ( + X15 54 ) X8 )  ( <= ( + Y8 60 ) Y15 )  ( <= ( + Y15 95 ) Y8 )  )
( or ( <= ( + X8 20 ) X16 )  ( <= ( + X16 19 ) X8 )  ( <= ( + Y8 60 ) Y16 )  ( <= ( + Y16 77 ) Y8 )  )
( or ( <= ( + X8 20 ) X17 )  ( <= ( + X17 48 ) X8 )  ( <= ( + Y8 60 ) Y17 )  ( <= ( + Y17 36 ) Y8 )  )
( or ( <= ( + X9 63 ) X10 )  ( <= ( + X10 70 ) X9 )  ( <= ( + Y9 64 ) Y10 )  ( <= ( + Y10 54 ) Y9 )  )
( or ( <= ( + X9 63 ) X11 )  ( <= ( + X11 22 ) X9 )  ( <= ( + Y9 64 ) Y11 )  ( <= ( + Y11 88 ) Y9 )  )
( or ( <= ( + X9 63 ) X12 )  ( <= ( + X12 8 ) X9 )  ( <= ( + Y9 64 ) Y12 )  ( <= ( + Y12 64 ) Y9 )  )
( or ( <= ( + X9 63 ) X13 )  ( <= ( + X13 20 ) X9 )  ( <= ( + Y9 64 ) Y13 )  ( <= ( + Y13 82 ) Y9 )  )
( or ( <= ( + X9 63 ) X14 )  ( <= ( + X14 68 ) X9 )  ( <= ( + Y9 64 ) Y14 )  ( <= ( + Y14 59 ) Y9 )  )
( or ( <= ( + X9 63 ) X15 )  ( <= ( + X15 54 ) X9 )  ( <= ( + Y9 64 ) Y15 )  ( <= ( + Y15 95 ) Y9 )  )
( or ( <= ( + X9 63 ) X16 )  ( <= ( + X16 19 ) X9 )  ( <= ( + Y9 64 ) Y16 )  ( <= ( + Y16 77 ) Y9 )  )
( or ( <= ( + X9 63 ) X17 )  ( <= ( + X17 48 ) X9 )  ( <= ( + Y9 64 ) Y17 )  ( <= ( + Y17 36 ) Y9 )  )
( or ( <= ( + X10 70 ) X11 )  ( <= ( + X11 22 ) X10 )  ( <= ( + Y10 54 ) Y11 )  ( <= ( + Y11 88 ) Y10 )  )
( or ( <= ( + X10 70 ) X12 )  ( <= ( + X12 8 ) X10 )  ( <= ( + Y10 54 ) Y12 )  ( <= ( + Y12 64 ) Y10 )  )
( or ( <= ( + X10 70 ) X13 )  ( <= ( + X13 20 ) X10 )  ( <= ( + Y10 54 ) Y13 )  ( <= ( + Y13 82 ) Y10 )  )
( or ( <= ( + X10 70 ) X14 )  ( <= ( + X14 68 ) X10 )  ( <= ( + Y10 54 ) Y14 )  ( <= ( + Y14 59 ) Y10 )  )
( or ( <= ( + X10 70 ) X15 )  ( <= ( + X15 54 ) X10 )  ( <= ( + Y10 54 ) Y15 )  ( <= ( + Y15 95 ) Y10 )  )
( or ( <= ( + X10 70 ) X16 )  ( <= ( + X16 19 ) X10 )  ( <= ( + Y10 54 ) Y16 )  ( <= ( + Y16 77 ) Y10 )  )
( or ( <= ( + X10 70 ) X17 )  ( <= ( + X17 48 ) X10 )  ( <= ( + Y10 54 ) Y17 )  ( <= ( + Y17 36 ) Y10 )  )
( or ( <= ( + X11 22 ) X12 )  ( <= ( + X12 8 ) X11 )  ( <= ( + Y11 88 ) Y12 )  ( <= ( + Y12 64 ) Y11 )  )
( or ( <= ( + X11 22 ) X13 )  ( <= ( + X13 20 ) X11 )  ( <= ( + Y11 88 ) Y13 )  ( <= ( + Y13 82 ) Y11 )  )
( or ( <= ( + X11 22 ) X14 )  ( <= ( + X14 68 ) X11 )  ( <= ( + Y11 88 ) Y14 )  ( <= ( + Y14 59 ) Y11 )  )
( or ( <= ( + X11 22 ) X15 )  ( <= ( + X15 54 ) X11 )  ( <= ( + Y11 88 ) Y15 )  ( <= ( + Y15 95 ) Y11 )  )
( or ( <= ( + X11 22 ) X16 )  ( <= ( + X16 19 ) X11 )  ( <= ( + Y11 88 ) Y16 )  ( <= ( + Y16 77 ) Y11 )  )
( or ( <= ( + X11 22 ) X17 )  ( <= ( + X17 48 ) X11 )  ( <= ( + Y11 88 ) Y17 )  ( <= ( + Y17 36 ) Y11 )  )
( or ( <= ( + X12 8 ) X13 )  ( <= ( + X13 20 ) X12 )  ( <= ( + Y12 64 ) Y13 )  ( <= ( + Y13 82 ) Y12 )  )
( or ( <= ( + X12 8 ) X14 )  ( <= ( + X14 68 ) X12 )  ( <= ( + Y12 64 ) Y14 )  ( <= ( + Y14 59 ) Y12 )  )
( or ( <= ( + X12 8 ) X15 )  ( <= ( + X15 54 ) X12 )  ( <= ( + Y12 64 ) Y15 )  ( <= ( + Y15 95 ) Y12 )  )
( or ( <= ( + X12 8 ) X16 )  ( <= ( + X16 19 ) X12 )  ( <= ( + Y12 64 ) Y16 )  ( <= ( + Y16 77 ) Y12 )  )
( or ( <= ( + X12 8 ) X17 )  ( <= ( + X17 48 ) X12 )  ( <= ( + Y12 64 ) Y17 )  ( <= ( + Y17 36 ) Y12 )  )
( or ( <= ( + X13 20 ) X14 )  ( <= ( + X14 68 ) X13 )  ( <= ( + Y13 82 ) Y14 )  ( <= ( + Y14 59 ) Y13 )  )
( or ( <= ( + X13 20 ) X15 )  ( <= ( + X15 54 ) X13 )  ( <= ( + Y13 82 ) Y15 )  ( <= ( + Y15 95 ) Y13 )  )
( or ( <= ( + X13 20 ) X16 )  ( <= ( + X16 19 ) X13 )  ( <= ( + Y13 82 ) Y16 )  ( <= ( + Y16 77 ) Y13 )  )
( or ( <= ( + X13 20 ) X17 )  ( <= ( + X17 48 ) X13 )  ( <= ( + Y13 82 ) Y17 )  ( <= ( + Y17 36 ) Y13 )  )
( or ( <= ( + X14 68 ) X15 )  ( <= ( + X15 54 ) X14 )  ( <= ( + Y14 59 ) Y15 )  ( <= ( + Y15 95 ) Y14 )  )
( or ( <= ( + X14 68 ) X16 )  ( <= ( + X16 19 ) X14 )  ( <= ( + Y14 59 ) Y16 )  ( <= ( + Y16 77 ) Y14 )  )
( or ( <= ( + X14 68 ) X17 )  ( <= ( + X17 48 ) X14 )  ( <= ( + Y14 59 ) Y17 )  ( <= ( + Y17 36 ) Y14 )  )
( or ( <= ( + X15 54 ) X16 )  ( <= ( + X16 19 ) X15 )  ( <= ( + Y15 95 ) Y16 )  ( <= ( + Y16 77 ) Y15 )  )
( or ( <= ( + X15 54 ) X17 )  ( <= ( + X17 48 ) X15 )  ( <= ( + Y15 95 ) Y17 )  ( <= ( + Y17 36 ) Y15 )  )
( or ( <= ( + X16 19 ) X17 )  ( <= ( + X17 48 ) X16 )  ( <= ( + Y16 77 ) Y17 )  ( <= ( + Y17 36 ) Y16 )  )
( >= X0 0)
( <= ( + X0 28) Z)
( >= Y0 0)
( <= ( + Y0 44 ) 212)
( >= X1 0)
( <= ( + X1 72) Z)
( >= Y1 0)
( <= ( + Y1 1 ) 212)
( >= X2 0)
( <= ( + X2 80) Z)
( >= Y2 0)
( <= ( + Y2 36 ) 212)
( >= X3 0)
( <= ( + X3 44) Z)
( >= Y3 0)
( <= ( + Y3 95 ) 212)
( >= X4 0)
( <= ( + X4 78) Z)
( >= Y4 0)
( <= ( + Y4 69 ) 212)
( >= X5 0)
( <= ( + X5 64) Z)
( >= Y5 0)
( <= ( + Y5 26 ) 212)
( >= X6 0)
( <= ( + X6 21) Z)
( >= Y6 0)
( <= ( + Y6 56 ) 212)
( >= X7 0)
( <= ( + X7 67) Z)
( >= Y7 0)
( <= ( + Y7 36 ) 212)
( >= X8 0)
( <= ( + X8 20) Z)
( >= Y8 0)
( <= ( + Y8 60 ) 212)
( >= X9 0)
( <= ( + X9 63) Z)
( >= Y9 0)
( <= ( + Y9 64 ) 212)
( >= X10 0)
( <= ( + X10 70) Z)
( >= Y10 0)
( <= ( + Y10 54 ) 212)
( >= X11 0)
( <= ( + X11 22) Z)
( >= Y11 0)
( <= ( + Y11 88 ) 212)
( >= X12 0)
( <= ( + X12 8) Z)
( >= Y12 0)
( <= ( + Y12 64 ) 212)
( >= X13 0)
( <= ( + X13 20) Z)
( >= Y13 0)
( <= ( + Y13 82 ) 212)
( >= X14 0)
( <= ( + X14 68) Z)
( >= Y14 0)
( <= ( + Y14 59 ) 212)
( >= X15 0)
( <= ( + X15 54) Z)
( >= Y15 0)
( <= ( + Y15 95 ) 212)
( >= X16 0)
( <= ( + X16 19) Z)
( >= Y16 0)
( <= ( + Y16 77 ) 212)
( >= X17 0)
( <= ( + X17 48) Z)
( >= Y17 0)
( <= ( + Y17 36 ) 212)
) )
(minimize Z)
(check-sat)
